/*********************************************
 * OPL 12.6.0.0 Data
 * Author: Adrian Rodriguez Bazaga, Pau Rodriguez Esmerats
 * Creation Date: 06/12/2017 at 23:02:55
 *********************************************/

nNurses=106;
maxConsec=2;
maxPresence=7;
maxHours=5;
minHours=1;
hours=24;
demand= [20 15 27 30 15 27 30 15 18 11 4 2 4 2 5 2 3 1 1 0 17 29 13 27  ];
